c description: Subset cardinality formula for fast_gnp_random_graph(6,8,0.9)
c generator: CNFgen (0.9.0)
c copyright: (C) 2012-2020 Massimo Lauria <massimo.lauria@uniroma1.it>
c url: https://massimolauria.net/cnfgen
c
p cnf 44 353
1 2 3 4 0
1 2 3 5 0
1 2 3 6 0
1 2 3 7 0
1 2 4 5 0
1 2 4 6 0
1 2 4 7 0
1 2 5 6 0
1 2 5 7 0
1 2 6 7 0
1 3 4 5 0
1 3 4 6 0
1 3 4 7 0
1 3 5 6 0
1 3 5 7 0
1 3 6 7 0
1 4 5 6 0
1 4 5 7 0
1 4 6 7 0
1 5 6 7 0
2 3 4 5 0
2 3 4 6 0
2 3 4 7 0
2 3 5 6 0
2 3 5 7 0
2 3 6 7 0
2 4 5 6 0
2 4 5 7 0
2 4 6 7 0
2 5 6 7 0
3 4 5 6 0
3 4 5 7 0
3 4 6 7 0
3 5 6 7 0
4 5 6 7 0
8 9 10 11 0
8 9 10 12 0
8 9 10 13 0
8 9 10 14 0
8 9 11 12 0
8 9 11 13 0
8 9 11 14 0
8 9 12 13 0
8 9 12 14 0
8 9 13 14 0
8 10 11 12 0
8 10 11 13 0
8 10 11 14 0
8 10 12 13 0
8 10 12 14 0
8 10 13 14 0
8 11 12 13 0
8 11 12 14 0
8 11 13 14 0
8 12 13 14 0
9 10 11 12 0
9 10 11 13 0
9 10 11 14 0
9 10 12 13 0
9 10 12 14 0
9 10 13 14 0
9 11 12 13 0
9 11 12 14 0
9 11 13 14 0
9 12 13 14 0
10 11 12 13 0
10 11 12 14 0
10 11 13 14 0
10 12 13 14 0
11 12 13 14 0
15 16 17 18 19 0
15 16 17 18 20 0
15 16 17 18 21 0
15 16 17 18 22 0
15 16 17 19 20 0
15 16 17 19 21 0
15 16 17 19 22 0
15 16 17 20 21 0
15 16 17 20 22 0
15 16 17 21 22 0
15 16 18 19 20 0
15 16 18 19 21 0
15 16 18 19 22 0
15 16 18 20 21 0
15 16 18 20 22 0
15 16 18 21 22 0
15 16 19 20 21 0
15 16 19 20 22 0
15 16 19 21 22 0
15 16 20 21 22 0
15 17 18 19 20 0
15 17 18 19 21 0
15 17 18 19 22 0
15 17 18 20 21 0
15 17 18 20 22 0
15 17 18 21 22 0
15 17 19 20 21 0
15 17 19 20 22 0
15 17 19 21 22 0
15 17 20 21 22 0
15 18 19 20 21 0
15 18 19 20 22 0
15 18 19 21 22 0
15 18 20 21 22 0
15 19 20 21 22 0
16 17 18 19 20 0
16 17 18 19 21 0
16 17 18 19 22 0
16 17 18 20 21 0
16 17 18 20 22 0
16 17 18 21 22 0
16 17 19 20 21 0
16 17 19 20 22 0
16 17 19 21 22 0
16 17 20 21 22 0
16 18 19 20 21 0
16 18 19 20 22 0
16 18 19 21 22 0
16 18 20 21 22 0
16 19 20 21 22 0
17 18 19 20 21 0
17 18 19 20 22 0
17 18 19 21 22 0
17 18 20 21 22 0
17 19 20 21 22 0
18 19 20 21 22 0
23 24 25 26 27 0
23 24 25 26 28 0
23 24 25 26 29 0
23 24 25 26 30 0
23 24 25 27 28 0
23 24 25 27 29 0
23 24 25 27 30 0
23 24 25 28 29 0
23 24 25 28 30 0
23 24 25 29 30 0
23 24 26 27 28 0
23 24 26 27 29 0
23 24 26 27 30 0
23 24 26 28 29 0
23 24 26 28 30 0
23 24 26 29 30 0
23 24 27 28 29 0
23 24 27 28 30 0
23 24 27 29 30 0
23 24 28 29 30 0
23 25 26 27 28 0
23 25 26 27 29 0
23 25 26 27 30 0
23 25 26 28 29 0
23 25 26 28 30 0
23 25 26 29 30 0
23 25 27 28 29 0
23 25 27 28 30 0
23 25 27 29 30 0
23 25 28 29 30 0
23 26 27 28 29 0
23 26 27 28 30 0
23 26 27 29 30 0
23 26 28 29 30 0
23 27 28 29 30 0
24 25 26 27 28 0
24 25 26 27 29 0
24 25 26 27 30 0
24 25 26 28 29 0
24 25 26 28 30 0
24 25 26 29 30 0
24 25 27 28 29 0
24 25 27 28 30 0
24 25 27 29 30 0
24 25 28 29 30 0
24 26 27 28 29 0
24 26 27 28 30 0
24 26 27 29 30 0
24 26 28 29 30 0
24 27 28 29 30 0
25 26 27 28 29 0
25 26 27 28 30 0
25 26 27 29 30 0
25 26 28 29 30 0
25 27 28 29 30 0
26 27 28 29 30 0
31 32 33 34 0
31 32 33 35 0
31 32 33 36 0
31 32 34 35 0
31 32 34 36 0
31 32 35 36 0
31 33 34 35 0
31 33 34 36 0
31 33 35 36 0
31 34 35 36 0
32 33 34 35 0
32 33 34 36 0
32 33 35 36 0
32 34 35 36 0
33 34 35 36 0
37 38 39 40 41 0
37 38 39 40 42 0
37 38 39 40 43 0
37 38 39 40 44 0
37 38 39 41 42 0
37 38 39 41 43 0
37 38 39 41 44 0
37 38 39 42 43 0
37 38 39 42 44 0
37 38 39 43 44 0
37 38 40 41 42 0
37 38 40 41 43 0
37 38 40 41 44 0
37 38 40 42 43 0
37 38 40 42 44 0
37 38 40 43 44 0
37 38 41 42 43 0
37 38 41 42 44 0
37 38 41 43 44 0
37 38 42 43 44 0
37 39 40 41 42 0
37 39 40 41 43 0
37 39 40 41 44 0
37 39 40 42 43 0
37 39 40 42 44 0
37 39 40 43 44 0
37 39 41 42 43 0
37 39 41 42 44 0
37 39 41 43 44 0
37 39 42 43 44 0
37 40 41 42 43 0
37 40 41 42 44 0
37 40 41 43 44 0
37 40 42 43 44 0
37 41 42 43 44 0
38 39 40 41 42 0
38 39 40 41 43 0
38 39 40 41 44 0
38 39 40 42 43 0
38 39 40 42 44 0
38 39 40 43 44 0
38 39 41 42 43 0
38 39 41 42 44 0
38 39 41 43 44 0
38 39 42 43 44 0
38 40 41 42 43 0
38 40 41 42 44 0
38 40 41 43 44 0
38 40 42 43 44 0
38 41 42 43 44 0
39 40 41 42 43 0
39 40 41 42 44 0
39 40 41 43 44 0
39 40 42 43 44 0
39 41 42 43 44 0
40 41 42 43 44 0
-1 -8 -15 -23 0
-1 -8 -15 -31 0
-1 -8 -15 -37 0
-1 -8 -23 -31 0
-1 -8 -23 -37 0
-1 -8 -31 -37 0
-1 -15 -23 -31 0
-1 -15 -23 -37 0
-1 -15 -31 -37 0
-1 -23 -31 -37 0
-8 -15 -23 -31 0
-8 -15 -23 -37 0
-8 -15 -31 -37 0
-8 -23 -31 -37 0
-15 -23 -31 -37 0
-2 -16 -24 0
-2 -16 -32 0
-2 -16 -38 0
-2 -24 -32 0
-2 -24 -38 0
-2 -32 -38 0
-16 -24 -32 0
-16 -24 -38 0
-16 -32 -38 0
-24 -32 -38 0
-9 -17 -25 0
-9 -17 -33 0
-9 -17 -39 0
-9 -25 -33 0
-9 -25 -39 0
-9 -33 -39 0
-17 -25 -33 0
-17 -25 -39 0
-17 -33 -39 0
-25 -33 -39 0
-3 -10 -18 0
-3 -10 -26 0
-3 -10 -40 0
-3 -18 -26 0
-3 -18 -40 0
-3 -26 -40 0
-10 -18 -26 0
-10 -18 -40 0
-10 -26 -40 0
-18 -26 -40 0
-4 -11 -19 0
-4 -11 -27 0
-4 -11 -41 0
-4 -19 -27 0
-4 -19 -41 0
-4 -27 -41 0
-11 -19 -27 0
-11 -19 -41 0
-11 -27 -41 0
-19 -27 -41 0
-5 -12 -20 -28 0
-5 -12 -20 -34 0
-5 -12 -20 -42 0
-5 -12 -28 -34 0
-5 -12 -28 -42 0
-5 -12 -34 -42 0
-5 -20 -28 -34 0
-5 -20 -28 -42 0
-5 -20 -34 -42 0
-5 -28 -34 -42 0
-12 -20 -28 -34 0
-12 -20 -28 -42 0
-12 -20 -34 -42 0
-12 -28 -34 -42 0
-20 -28 -34 -42 0
-6 -13 -21 -29 0
-6 -13 -21 -35 0
-6 -13 -21 -43 0
-6 -13 -29 -35 0
-6 -13 -29 -43 0
-6 -13 -35 -43 0
-6 -21 -29 -35 0
-6 -21 -29 -43 0
-6 -21 -35 -43 0
-6 -29 -35 -43 0
-13 -21 -29 -35 0
-13 -21 -29 -43 0
-13 -21 -35 -43 0
-13 -29 -35 -43 0
-21 -29 -35 -43 0
-7 -14 -22 -30 0
-7 -14 -22 -36 0
-7 -14 -22 -44 0
-7 -14 -30 -36 0
-7 -14 -30 -44 0
-7 -14 -36 -44 0
-7 -22 -30 -36 0
-7 -22 -30 -44 0
-7 -22 -36 -44 0
-7 -30 -36 -44 0
-14 -22 -30 -36 0
-14 -22 -30 -44 0
-14 -22 -36 -44 0
-14 -30 -36 -44 0
-22 -30 -36 -44 0